molecule mol {
0 1
O   0.000000   0.000000   0.117176
H   0.000000   0.757329  -0.468706
H   0.000000  -0.757329  -0.468706
symmetry c1
}

set {
  basis         pcseg-0
  cabs_basis    ../pcseg-cabs
  freeze_core   True
  mp2_type      conv
  f12_beta      1.0
  cabs_singles  True
}

energy('mp2-f12')
